c "175203.clq"
p edge 100 1344
e 1 17
e 1 18
e 1 19
e 1 20
e 1 21
e 1 22
e 1 26
e 1 27
e 1 28
e 1 29
e 1 31
e 1 37
e 1 42
e 1 44
e 1 48
e 1 49
e 1 63
e 1 85
e 1 88
e 2 17
e 2 18
e 2 19
e 2 20
e 2 21
e 2 22
e 2 23
e 2 24
e 2 25
e 2 29
e 2 36
e 2 37
e 2 38
e 2 39
e 2 40
e 2 45
e 2 49
e 2 50
e 2 52
e 2 53
e 2 56
e 2 70
e 2 71
e 2 74
e 2 78
e 2 80
e 2 84
e 2 87
e 2 94
e 2 95
e 2 99
e 3 17
e 3 18
e 3 19
e 3 21
e 3 22
e 3 23
e 3 25
e 3 26
e 3 32
e 3 35
e 3 46
e 3 57
e 3 58
e 3 60
e 3 66
e 3 67
e 3 71
e 3 77
e 3 93
e 3 98
e 3 100
e 4 17
e 4 24
e 4 32
e 4 39
e 4 82
e 4 85
e 5 17
e 5 18
e 5 19
e 5 21
e 5 23
e 5 24
e 5 26
e 5 27
e 5 30
e 5 32
e 5 34
e 5 38
e 5 39
e 5 40
e 5 43
e 5 44
e 5 51
e 5 56
e 5 65
e 5 66
e 5 78
e 5 80
e 5 84
e 6 17
e 6 18
e 6 19
e 6 20
e 6 22
e 6 25
e 6 26
e 6 27
e 6 28
e 6 29
e 6 33
e 6 35
e 6 39
e 6 41
e 6 42
e 6 43
e 6 44
e 6 46
e 6 53
e 6 59
e 6 64
e 6 76
e 6 77
e 6 84
e 6 91
e 6 92
e 6 96
e 6 99
e 7 17
e 7 18
e 7 19
e 7 20
e 7 21
e 7 22
e 7 23
e 7 24
e 7 25
e 7 26
e 7 27
e 7 28
e 7 31
e 7 33
e 7 34
e 7 38
e 7 41
e 7 42
e 7 44
e 7 45
e 7 52
e 7 54
e 7 59
e 7 60
e 7 62
e 7 66
e 7 69
e 7 74
e 7 79
e 7 82
e 7 88
e 7 93
e 8 17
e 8 18
e 8 19
e 8 20
e 8 22
e 8 23
e 8 25
e 8 33
e 8 34
e 8 37
e 8 39
e 8 47
e 8 53
e 8 71
e 8 74
e 8 82
e 8 83
e 8 86
e 8 88
e 8 93
e 8 94
e 8 96
e 8 97
e 9 17
e 9 18
e 9 19
e 9 20
e 9 21
e 9 23
e 9 24
e 9 26
e 9 30
e 9 31
e 9 33
e 9 34
e 9 41
e 9 55
e 9 63
e 9 66
e 9 67
e 9 70
e 9 71
e 9 90
e 9 99
e 9 100
e 10 17
e 10 18
e 10 19
e 10 20
e 10 21
e 10 22
e 10 23
e 10 24
e 10 26
e 10 28
e 10 29
e 10 30
e 10 32
e 10 33
e 10 35
e 10 36
e 10 38
e 10 39
e 10 40
e 10 41
e 10 44
e 10 48
e 10 49
e 10 55
e 10 56
e 10 58
e 10 60
e 10 66
e 10 74
e 10 75
e 10 77
e 10 79
e 10 81
e 10 82
e 10 85
e 10 95
e 10 97
e 11 17
e 11 18
e 11 20
e 11 23
e 11 25
e 11 27
e 11 28
e 11 29
e 11 32
e 11 35
e 11 37
e 11 46
e 11 47
e 11 48
e 11 54
e 11 55
e 11 57
e 11 64
e 11 76
e 11 90
e 11 91
e 11 92
e 11 95
e 12 17
e 12 18
e 12 19
e 12 20
e 12 21
e 12 34
e 12 39
e 12 42
e 12 48
e 12 61
e 12 64
e 12 66
e 12 67
e 12 70
e 12 74
e 12 81
e 12 88
e 12 96
e 13 17
e 13 18
e 13 19
e 13 20
e 13 21
e 13 22
e 13 24
e 13 30
e 13 31
e 13 42
e 13 45
e 13 58
e 13 89
e 13 95
e 14 17
e 14 18
e 14 19
e 14 20
e 14 21
e 14 22
e 14 23
e 14 25
e 14 27
e 14 32
e 14 37
e 14 40
e 14 43
e 14 46
e 14 50
e 14 52
e 14 61
e 14 68
e 14 70
e 14 75
e 14 76
e 14 95
e 14 96
e 15 17
e 15 18
e 15 19
e 15 20
e 15 21
e 15 22
e 15 24
e 15 25
e 15 26
e 15 31
e 15 33
e 15 36
e 15 38
e 15 39
e 15 42
e 15 60
e 15 62
e 15 67
e 15 68
e 15 71
e 15 73
e 15 77
e 15 81
e 15 87
e 15 90
e 15 93
e 16 17
e 16 18
e 16 19
e 16 20
e 16 21
e 16 22
e 16 23
e 16 24
e 16 26
e 16 27
e 16 29
e 16 30
e 16 31
e 16 32
e 16 33
e 16 35
e 16 36
e 16 38
e 16 39
e 16 41
e 16 42
e 16 43
e 16 45
e 16 47
e 16 48
e 16 49
e 16 51
e 16 61
e 16 63
e 16 72
e 16 73
e 16 79
e 16 81
e 16 86
e 16 89
e 16 91
e 17 18
e 17 19
e 17 20
e 17 21
e 17 22
e 17 23
e 17 24
e 17 25
e 17 27
e 17 28
e 17 29
e 17 30
e 17 31
e 17 32
e 17 33
e 17 35
e 17 36
e 17 37
e 17 38
e 17 39
e 17 42
e 17 43
e 17 45
e 17 46
e 17 48
e 17 49
e 17 50
e 17 52
e 17 55
e 17 60
e 17 63
e 17 65
e 17 67
e 17 68
e 17 69
e 17 75
e 17 76
e 17 77
e 17 79
e 17 80
e 17 87
e 17 88
e 17 89
e 17 91
e 17 92
e 17 98
e 17 100
e 18 19
e 18 20
e 18 21
e 18 22
e 18 23
e 18 24
e 18 25
e 18 26
e 18 27
e 18 28
e 18 29
e 18 30
e 18 31
e 18 33
e 18 36
e 18 37
e 18 38
e 18 39
e 18 40
e 18 41
e 18 42
e 18 44
e 18 45
e 18 47
e 18 48
e 18 50
e 18 52
e 18 53
e 18 54
e 18 55
e 18 56
e 18 57
e 18 58
e 18 66
e 18 67
e 18 68
e 18 71
e 18 73
e 18 74
e 18 75
e 18 76
e 18 81
e 18 87
e 18 95
e 19 20
e 19 21
e 19 22
e 19 23
e 19 24
e 19 25
e 19 26
e 19 27
e 19 28
e 19 29
e 19 30
e 19 31
e 19 32
e 19 33
e 19 34
e 19 35
e 19 36
e 19 37
e 19 38
e 19 39
e 19 40
e 19 41
e 19 42
e 19 43
e 19 46
e 19 48
e 19 49
e 19 50
e 19 51
e 19 52
e 19 55
e 19 56
e 19 57
e 19 59
e 19 64
e 19 65
e 19 66
e 19 68
e 19 69
e 19 72
e 19 75
e 19 77
e 19 78
e 19 80
e 19 82
e 19 83
e 19 88
e 19 90
e 19 93
e 19 98
e 20 21
e 20 22
e 20 23
e 20 24
e 20 25
e 20 26
e 20 27
e 20 28
e 20 29
e 20 30
e 20 31
e 20 34
e 20 38
e 20 39
e 20 40
e 20 49
e 20 50
e 20 52
e 20 53
e 20 54
e 20 57
e 20 61
e 20 70
e 20 71
e 20 74
e 20 83
e 20 85
e 20 89
e 20 90
e 20 94
e 20 98
e 20 100
e 21 22
e 21 23
e 21 24
e 21 25
e 21 26
e 21 27
e 21 28
e 21 31
e 21 32
e 21 34
e 21 35
e 21 36
e 21 37
e 21 41
e 21 42
e 21 43
e 21 46
e 21 47
e 21 51
e 21 53
e 21 56
e 21 58
e 21 59
e 21 60
e 21 61
e 21 62
e 21 63
e 21 65
e 21 69
e 21 70
e 21 80
e 21 92
e 21 93
e 21 96
e 22 23
e 22 24
e 22 25
e 22 26
e 22 28
e 22 29
e 22 30
e 22 36
e 22 37
e 22 40
e 22 41
e 22 42
e 22 43
e 22 44
e 22 45
e 22 47
e 22 49
e 22 54
e 22 70
e 22 71
e 22 72
e 22 73
e 22 74
e 22 76
e 22 81
e 22 83
e 22 92
e 23 24
e 23 25
e 23 26
e 23 27
e 23 28
e 23 29
e 23 30
e 23 31
e 23 32
e 23 35
e 23 36
e 23 39
e 23 41
e 23 42
e 23 45
e 23 46
e 23 50
e 23 53
e 23 54
e 23 61
e 23 63
e 23 64
e 23 67
e 23 69
e 23 71
e 23 76
e 23 77
e 23 83
e 23 84
e 23 86
e 23 90
e 23 94
e 23 96
e 23 98
e 24 25
e 24 26
e 24 27
e 24 28
e 24 29
e 24 30
e 24 31
e 24 33
e 24 34
e 24 38
e 24 41
e 24 43
e 24 46
e 24 47
e 24 48
e 24 49
e 24 51
e 24 52
e 24 56
e 24 58
e 24 68
e 24 69
e 24 72
e 24 73
e 24 75
e 24 76
e 24 79
e 24 82
e 24 86
e 24 89
e 24 90
e 24 94
e 24 95
e 24 98
e 24 99
e 25 27
e 25 28
e 25 29
e 25 31
e 25 32
e 25 33
e 25 34
e 25 35
e 25 36
e 25 40
e 25 42
e 25 44
e 25 45
e 25 47
e 25 48
e 25 51
e 25 52
e 25 54
e 25 57
e 25 62
e 25 64
e 25 68
e 25 69
e 25 71
e 25 74
e 25 78
e 25 81
e 25 83
e 25 85
e 25 86
e 25 88
e 25 89
e 25 96
e 25 98
e 26 27
e 26 28
e 26 30
e 26 33
e 26 34
e 26 35
e 26 37
e 26 38
e 26 40
e 26 41
e 26 42
e 26 46
e 26 47
e 26 48
e 26 49
e 26 51
e 26 54
e 26 57
e 26 59
e 26 61
e 26 66
e 26 72
e 26 73
e 26 78
e 26 79
e 26 87
e 26 93
e 26 94
e 26 96
e 26 99
e 26 100
e 27 28
e 27 29
e 27 30
e 27 32
e 27 34
e 27 35
e 27 43
e 27 45
e 27 47
e 27 48
e 27 50
e 27 51
e 27 52
e 27 53
e 27 56
e 27 57
e 27 58
e 27 59
e 27 61
e 27 62
e 27 63
e 27 71
e 27 73
e 27 75
e 27 77
e 27 83
e 27 84
e 27 85
e 27 90
e 27 93
e 27 95
e 28 29
e 28 30
e 28 31
e 28 32
e 28 33
e 28 34
e 28 36
e 28 37
e 28 38
e 28 40
e 28 44
e 28 45
e 28 50
e 28 51
e 28 53
e 28 54
e 28 55
e 28 56
e 28 59
e 28 60
e 28 61
e 28 63
e 28 69
e 28 70
e 28 72
e 28 74
e 28 79
e 28 87
e 28 97
e 29 30
e 29 32
e 29 33
e 29 34
e 29 35
e 29 38
e 29 41
e 29 44
e 29 46
e 29 50
e 29 51
e 29 55
e 29 58
e 29 59
e 29 60
e 29 62
e 29 65
e 29 87
e 29 94
e 30 31
e 30 32
e 30 35
e 30 36
e 30 40
e 30 43
e 30 44
e 30 45
e 30 47
e 30 48
e 30 51
e 30 56
e 30 59
e 30 61
e 30 63
e 30 68
e 30 69
e 30 70
e 30 71
e 30 75
e 30 76
e 30 80
e 30 87
e 30 88
e 30 94
e 30 100
e 31 33
e 31 34
e 31 36
e 31 37
e 31 44
e 31 45
e 31 46
e 31 48
e 31 50
e 31 55
e 31 56
e 31 58
e 31 60
e 31 62
e 31 67
e 31 73
e 31 80
e 31 83
e 31 86
e 31 92
e 32 34
e 32 35
e 32 37
e 32 40
e 32 44
e 32 47
e 32 48
e 32 49
e 32 51
e 32 52
e 32 54
e 32 55
e 32 57
e 32 58
e 32 63
e 32 66
e 32 69
e 32 72
e 32 74
e 32 77
e 32 80
e 32 81
e 32 82
e 32 92
e 32 94
e 32 97
e 32 98
e 33 36
e 33 37
e 33 38
e 33 40
e 33 50
e 33 51
e 33 52
e 33 55
e 33 57
e 33 61
e 33 65
e 33 76
e 33 83
e 33 88
e 33 100
e 34 35
e 34 36
e 34 37
e 34 38
e 34 40
e 34 41
e 34 44
e 34 51
e 34 53
e 34 54
e 34 58
e 34 59
e 34 67
e 34 71
e 34 76
e 34 77
e 34 78
e 34 79
e 34 80
e 34 83
e 34 85
e 34 86
e 34 87
e 34 96
e 34 97
e 35 39
e 35 42
e 35 43
e 35 44
e 35 46
e 35 50
e 35 53
e 35 62
e 35 64
e 35 66
e 35 83
e 35 84
e 35 86
e 35 90
e 35 91
e 35 94
e 35 97
e 36 41
e 36 45
e 36 52
e 36 53
e 36 63
e 36 64
e 36 68
e 36 70
e 36 80
e 37 43
e 37 65
e 37 72
e 37 74
e 37 77
e 37 79
e 37 94
e 38 39
e 38 43
e 38 46
e 38 47
e 38 52
e 38 54
e 38 55
e 38 57
e 38 58
e 38 62
e 38 68
e 38 69
e 38 74
e 38 75
e 38 78
e 38 87
e 38 91
e 38 93
e 38 98
e 39 40
e 39 43
e 39 46
e 39 55
e 39 61
e 39 63
e 39 65
e 39 69
e 39 70
e 39 76
e 39 87
e 39 95
e 39 97
e 39 99
e 40 41
e 40 43
e 40 45
e 40 46
e 40 49
e 40 50
e 40 51
e 40 54
e 40 57
e 40 58
e 40 59
e 40 61
e 40 63
e 40 70
e 40 72
e 40 74
e 40 75
e 40 79
e 40 81
e 40 84
e 40 89
e 40 93
e 40 96
e 41 47
e 41 49
e 41 53
e 41 54
e 41 56
e 41 57
e 41 58
e 41 59
e 41 73
e 41 79
e 41 82
e 41 83
e 41 86
e 41 88
e 41 90
e 41 91
e 41 99
e 42 44
e 42 45
e 42 47
e 42 49
e 42 50
e 42 51
e 42 52
e 42 53
e 42 54
e 42 55
e 42 56
e 42 57
e 42 62
e 42 63
e 42 66
e 42 68
e 42 72
e 42 79
e 42 82
e 42 84
e 42 90
e 42 91
e 42 93
e 42 95
e 43 53
e 43 59
e 43 65
e 43 68
e 43 70
e 43 76
e 43 83
e 43 84
e 43 94
e 43 95
e 44 49
e 44 54
e 44 60
e 44 62
e 44 65
e 44 66
e 44 72
e 44 89
e 45 48
e 45 52
e 45 53
e 45 56
e 45 59
e 45 64
e 45 66
e 45 67
e 45 70
e 45 78
e 45 81
e 45 82
e 46 47
e 46 59
e 46 60
e 46 64
e 46 66
e 46 69
e 46 72
e 46 75
e 46 85
e 46 88
e 46 97
e 46 100
e 47 49
e 47 58
e 47 65
e 47 67
e 47 68
e 47 91
e 48 59
e 48 60
e 48 61
e 48 68
e 48 69
e 48 72
e 48 86
e 48 87
e 48 88
e 48 90
e 48 98
e 49 50
e 49 63
e 49 64
e 49 73
e 49 77
e 49 99
e 50 55
e 50 57
e 50 64
e 50 65
e 50 67
e 50 68
e 50 77
e 50 80
e 50 81
e 50 84
e 50 94
e 51 56
e 51 62
e 51 71
e 51 78
e 51 79
e 51 88
e 51 94
e 51 96
e 51 98
e 51 100
e 52 58
e 52 60
e 52 82
e 52 90
e 53 55
e 53 56
e 53 60
e 53 65
e 53 66
e 53 73
e 53 74
e 53 89
e 53 93
e 53 100
e 54 57
e 54 60
e 54 65
e 54 67
e 54 68
e 54 74
e 54 80
e 54 85
e 54 89
e 54 95
e 55 62
e 55 72
e 55 75
e 55 76
e 55 80
e 55 84
e 55 91
e 55 94
e 56 61
e 56 64
e 56 67
e 56 70
e 56 78
e 56 98
e 57 61
e 57 64
e 57 72
e 57 80
e 57 81
e 57 83
e 57 87
e 57 88
e 57 89
e 57 95
e 57 99
e 58 60
e 58 64
e 58 71
e 58 73
e 58 92
e 59 62
e 59 73
e 60 62
e 60 64
e 60 69
e 60 72
e 60 75
e 60 76
e 60 86
e 60 93
e 60 97
e 60 99
e 60 100
e 61 62
e 61 65
e 61 73
e 61 77
e 61 78
e 61 85
e 61 100
e 62 63
e 62 71
e 62 77
e 62 79
e 62 81
e 62 82
e 62 92
e 62 96
e 63 65
e 63 67
e 63 100
e 64 81
e 64 87
e 64 90
e 64 92
e 64 93
e 64 97
e 65 67
e 65 85
e 65 89
e 65 95
e 65 97
e 66 78
e 66 82
e 66 94
e 66 95
e 66 99
e 66 100
e 67 70
e 67 78
e 67 83
e 67 84
e 68 69
e 68 73
e 68 84
e 68 91
e 69 75
e 69 78
e 69 80
e 69 81
e 69 85
e 69 86
e 69 91
e 69 100
e 70 76
e 70 79
e 70 85
e 70 91
e 70 99
e 71 80
e 71 81
e 71 85
e 71 86
e 71 88
e 71 96
e 71 98
e 72 73
e 72 75
e 72 82
e 72 85
e 72 97
e 73 77
e 73 82
e 73 84
e 73 87
e 73 92
e 73 96
e 74 75
e 74 78
e 74 92
e 75 78
e 75 86
e 75 92
e 75 99
e 76 97
e 77 79
e 77 85
e 77 86
e 77 88
e 77 89
e 77 91
e 77 92
e 77 98
e 78 82
e 78 89
e 78 93
e 79 83
e 79 90
e 79 96
e 79 99
e 80 91
e 81 84
e 81 86
e 81 89
e 83 84
e 83 96
e 84 89
e 85 92
e 85 98
e 86 87
e 86 93
e 86 97
e 87 95
e 88 90
e 89 91
e 89 92
e 90 97
e 90 99
e 90 100
e 92 99
e 93 97
e 95 98
